Generated3SAT/uf5-14/prompts/complex/uf5-5.txt
Please solve the following SAT Problem encoded in DIMACS format, provide line of thoughts, write your final answer as a single solution at the end of response with header 'answer: ' : 
p cnf 5 14
-1 -2 -4 0
-4 3 -2 0
-5 3 1 0
-4 -5 1 0
3 -4 2 0
-2 5 -3 0
-1 3 -5 0
1 3 -4 0
3 -2 -5 0
-5 4 -2 0
-4 2 -5 0
-4 -5 1 0
5 -1 -4 0
3 -2 -5 0

