Generated3SAT/uf5-18/uf5-5.cnf
p cnf 5 18
1 -5 4 0
-2 1 4 0
2 -1 -5 0
3 -1 -5 0
1 2 4 0
1 4 -5 0
1 3 -5 0
1 -5 4 0
-5 2 4 0
-1 5 4 0
1 3 -5 0
-4 -5 3 0
-5 3 1 0
4 3 1 0
4 2 3 0
1 -2 3 0
4 2 1 0
-1 -4 2 0
%
0